
Gurobi 11.0.1 (win64) logging started Mon May 13 15:37:27 2024

Set parameter LogFile to value "output/solver_log17.txt"
Gurobi Optimizer version 11.0.1 build v11.0.1rc0 (win64 - Windows 11.0 (22631.2))

CPU model: 11th Gen Intel(R) Core(TM) i7-1165G7 @ 2.80GHz, instruction set [SSE2|AVX|AVX2|AVX512]
Thread count: 4 physical cores, 8 logical processors, using up to 8 threads

Optimize a model with 2313 rows, 472 columns and 42901 nonzeros
Model fingerprint: 0x8e156621
Variable types: 248 continuous, 224 integer (224 binary)
Coefficient statistics:
  Matrix range     [4e-01, 1e+05]
  Objective range  [1e+00, 1e+02]
  Bounds range     [1e+00, 1e+00]
  RHS range        [1e-02, 1e+05]

User MIP start produced solution with objective 75597.6 (0.01s)
User MIP start produced solution with objective 75597.6 (0.01s)
Loaded user MIP start with objective 75597.6

Presolve removed 135 rows and 125 columns
Presolve time: 0.05s
Presolved: 2178 rows, 347 columns, 41747 nonzeros
Variable types: 228 continuous, 119 integer (116 binary)

Root relaxation: objective 7.565413e+04, 502 iterations, 0.03 seconds (0.06 work units)

    Nodes    |    Current Node    |     Objective Bounds      |     Work
 Expl Unexpl |  Obj  Depth IntInf | Incumbent    BestBd   Gap | It/Node Time

     0     0 75654.1337    0    2 75597.5639 75654.1337  0.07%     -    0s
     0     0 75654.1337    0    2 75597.5639 75654.1337  0.07%     -    0s
     0     0 infeasible    0      75597.5639 75597.5639  0.00%     -    0s

Explored 1 nodes (983 simplex iterations) in 0.43 seconds (0.56 work units)
Thread count was 8 (of 8 available processors)

Solution count 2: 75597.6 75597.6 

Optimal solution found (tolerance 1.00e-04)
Best objective 7.559756391011e+04, best bound 7.559756391011e+04, gap 0.0000%
